
Gurobi 9.0.3 (win64) logging started Sat Feb  5 17:52:19 2022

Changed value of parameter LogFile to logs\CRVRP_5-2-7-100_2_1.LOG
   Prev: logs\CRVRP_5-2-7-100_2_0.LOG  Default: 
Changed value of parameter Seed to 146464711
   Prev: 1727460273  Min: 0  Max: 2000000000  Default: 0
Parameter Threads unchanged
   Value: 2  Min: 0  Max: 1024  Default: 0
Parameter TimeLimit unchanged
   Value: 60.0  Min: 0.0  Max: inf  Default: inf
Parameter Symmetry unchanged
   Value: 2  Min: -1  Max: 2  Default: -1
Parameter Cuts unchanged
   Value: 2  Min: -1  Max: 3  Default: -1
Parameter PreDepRow unchanged
   Value: 1  Min: -1  Max: 1  Default: -1
Parameter ScaleFlag unchanged
   Value: 1  Min: -1  Max: 3  Default: -1
Parameter NormAdjust unchanged
   Value: 0  Min: -1  Max: 3  Default: -1
Gurobi Optimizer version 9.0.3 build v9.0.3rc0 (win64)
Optimize a model with 1001 rows, 810 columns and 4006 nonzeros
Model fingerprint: 0xf8384c0d
Variable types: 32 continuous, 778 integer (522 binary)
Coefficient statistics:
  Matrix range     [1e+00, 1e+06]
  Objective range  [1e+00, 1e+00]
  Bounds range     [1e+00, 1e+04]
  RHS range        [1e+00, 1e+06]
Presolve removed 618 rows and 515 columns
Presolve time: 0.02s
Presolved: 383 rows, 295 columns, 2046 nonzeros
Variable types: 15 continuous, 280 integer (230 binary)

Root relaxation: objective 3.337200e+02, 156 iterations, 0.00 seconds

    Nodes    |    Current Node    |     Objective Bounds      |     Work
 Expl Unexpl |  Obj  Depth IntInf | Incumbent    BestBd   Gap | It/Node Time

     0     0  333.71998    0   23          -  333.71998      -     -    0s
H    0     0                     962.2176095  333.71998  65.3%     -    0s
     0     0  335.57647    0   66  962.21761  335.57647  65.1%     -    0s
H    0     0                     924.4009688  335.57647  63.7%     -    0s
H    0     0                     764.0901877  335.57647  56.1%     -    0s
     0     0  339.38769    0   54  764.09019  339.38769  55.6%     -    0s
     0     0  339.64647    0   52  764.09019  339.64647  55.5%     -    0s
     0     0  339.68677    0   56  764.09019  339.68677  55.5%     -    0s
     0     0  350.52955    0   65  764.09019  350.52955  54.1%     -    0s
H    0     0                     679.5916038  350.52955  48.4%     -    0s
     0     0  350.57001    0   66  679.59160  350.57001  48.4%     -    0s
     0     0  350.59426    0   69  679.59160  350.59426  48.4%     -    0s
     0     0  360.99397    0   57  679.59160  360.99397  46.9%     -    0s
H    0     0                     622.7351417  360.99397  42.0%     -    0s
     0     0  360.99962    0   57  622.73514  360.99962  42.0%     -    0s
     0     0  367.24949    0   45  622.73514  367.24949  41.0%     -    0s
     0     0  367.73108    0   51  622.73514  367.73108  40.9%     -    0s
     0     0  367.73108    0   53  622.73514  367.73108  40.9%     -    0s
     0     0  369.98282    0   58  622.73514  369.98282  40.6%     -    0s
H    0     0                     599.1651280  369.98282  38.3%     -    0s
     0     0  369.99947    0   62  599.16513  369.99947  38.2%     -    0s
     0     0  370.20782    0   76  599.16513  370.20782  38.2%     -    0s
     0     0  370.20782    0   64  599.16513  370.20782  38.2%     -    0s
H    0     0                     577.3768235  370.20782  35.9%     -    0s
H    0     0                     536.4551201  370.20787  31.0%     -    0s
     0     2  370.21442    0   59  536.45512  370.21442  31.0%     -    0s
*  190    92              28     519.8659198  397.98083  23.4%  12.1    0s
H  285    98                     515.5510990  438.91061  14.9%  12.5    0s
*  339   117              20     500.5334167  438.91061  12.3%  12.4    0s
*  355   117              32     499.3557630  438.91061  12.1%  12.1    0s
*  541    99              26     494.4009688  438.91061  11.2%  12.6    1s
*  618    96              29     489.3260285  438.91061  10.3%  12.1    1s
*  712    83              10     485.7240517  466.55222  3.95%  12.2    1s
*  768    86              18     479.5916038  466.55222  2.72%  12.0    1s
*  773    86              14     474.0901877  466.55222  1.59%  12.0    1s

Cutting planes:
  Gomory: 7
  Cover: 2
  Implied bound: 36
  Projected implied bound: 1
  Clique: 5
  MIR: 33
  Flow cover: 114
  Inf proof: 3
  Zero half: 2
  RLT: 122
  Relax-and-lift: 97

Explored 882 nodes (10771 simplex iterations) in 1.21 seconds
Thread count was 2 (of 8 available processors)

Solution count 10: 474.09 479.592 485.724 ... 536.455

Optimal solution found (tolerance 1.00e-04)
Best objective 4.740901877086e+02, best bound 4.740901877086e+02, gap 0.0000%
Discarded solution information
